{"name": "Joseph Glenn Schloss", "remote_ids": {"viaf": "71676763", "wikidata": "Q47114211", "isni": "000000005339389X"}}
{"name": "Massimo Franciosa", "remote_ids": {"viaf": "79058282", "wikidata": "Q525427", "isni": "0000000078238271"}}
{"name": "Parsons, Jack", "remote_ids": {"viaf": "4934750", "wikidata": "Q331497", "isni": "0000000006552800"}}
{"name": "Barbara Jones", "remote_ids": {"viaf": "101069131", "wikidata": "Q4859034", "isni": "0000000116924978"}}
{"name": "Anton Rotzetter", "remote_ids": {"viaf": "71408691", "wikidata": "Q593539", "isni": "0000000080777311"}}
{"name": "Richard von Mises", "remote_ids": {"viaf": "56655074", "wikidata": "Q84292", "isni": "0000000081353609"}}
{"name": "David Werner", "remote_ids": {"viaf": "90680618", "wikidata": "Q5240970", "isni": "0000000121432804"}}
{"name": "Ian Macpherson", "remote_ids": {"viaf": "33452024", "wikidata": "Q5982174", "isni": "0000000063620021"}}
{"name": "R. B. Freeman", "remote_ids": {"viaf": "89946197", "wikidata": "Q7273467", "isni": "0000000083994282"}}
{"name": "Montague Dawson", "remote_ids": {"viaf": "95808264", "wikidata": "Q6904109", "isni": "0000000116019273"}}
{"name": "Gregorio Lupero\u0301n", "remote_ids": {"viaf": "33332804", "wikidata": "Q888631", "isni": "0000000059300770"}}
{"name": "Vincenzo Brunacci", "remote_ids": {"viaf": "15551454", "wikidata": "Q2268975", "isni": "000000007325933X"}}
{"name": "Ernst Kurth", "remote_ids": {"viaf": "12349163", "wikidata": "Q88517", "isni": "0000000108703307"}}
{"name": "Fran\u00e7ois Xavier de Feller", "remote_ids": {"viaf": "7445194", "wikidata": "Q1648711", "isni": "000000012119392X"}}
{"name": "Charles L\u00e9on vicomte de Bouthillier Chavigny", "remote_ids": {"viaf": "46867482", "wikidata": "Q2958224", "isni": "0000000083795486"}}
{"name": "L\u00e9ocadie Aim\u00e9e (Doze) Beauvoir", "remote_ids": {"viaf": "100354925", "wikidata": "Q3270594", "isni": "0000000005010794"}}
{"name": "Achille Charles L\u00e9once Victor duc de Broglie", "remote_ids": {"viaf": "100176986", "isni": "0000000122834231", "wikidata": "Q338386"}}
{"name": "Felix Bovet", "remote_ids": {"viaf": "61644849", "wikidata": "Q78058784", "isni": "0000000079764169"}}
{"name": "Jean Auguste Brutails", "remote_ids": {"viaf": "85932977", "wikidata": "Q3163743", "isni": "0000000116816723"}}
{"name": "Jules Boissi\u00e8re", "remote_ids": {"viaf": "2466896", "wikidata": "Q3188438", "isni": "0000000083502380"}}
{"name": "Wilhelm von Kardorff", "remote_ids": {"viaf": "67261591", "wikidata": "Q96133", "isni": "0000000083907169"}}
{"name": "Sydney Robert Bellingham", "remote_ids": {"viaf": "104477345", "wikidata": "Q3506842", "isni": "0000000074423744"}}
{"name": "Justin Sabatier", "remote_ids": {"viaf": "46833881", "wikidata": "Q3903456", "isni": "0000000108959484"}}
{"name": "Ant\u00f3nio Pedro Lopes de Mendon\u00e7a", "remote_ids": {"viaf": "27059459", "wikidata": "Q16492186", "isni": "0000000081052857"}}
{"name": "Ab\u016b Marw\u0101n \u1e24ayy\u0101n ibn Khalaf Ibn \u1e24ayy\u0101n", "remote_ids": {"viaf": "12696782", "wikidata": "Q2745220", "isni": "0000000080923841"}}
{"name": "A\u1e25mad Taym\u016br", "remote_ids": {"viaf": "19737865", "wikidata": "Q8510488", "isni": "0000000080985700"}}
{"name": "Lajos Bir\u00f3", "remote_ids": {"viaf": "44496747", "wikidata": "Q256054", "isni": "0000000108571164"}}
{"name": "Alessandra Macinghi Strozzi", "remote_ids": {"viaf": "59298392", "wikidata": "Q371787", "isni": "0000000116521693"}}
{"name": "Scrutator", "remote_ids": {"viaf": "93643469", "wikidata": "Q56117378", "isni": "0000000064583197"}}
{"name": "Nash, Walter Sir", "remote_ids": {"viaf": "51290156", "wikidata": "Q721770", "isni": "0000000109711499"}}
{"name": "Karl Heinrich D\u00f6ring", "remote_ids": {"viaf": "94087680", "wikidata": "Q4172629", "isni": "0000000119640794"}}
{"name": "Philip Egner", "remote_ids": {"viaf": "17651619", "wikidata": "Q24203422", "isni": "0000000071460857"}}
{"name": "Karl Sell", "remote_ids": {"viaf": "178", "wikidata": "Q1733000", "isni": "0000000061394112"}}
{"name": "Camillo Sivori", "remote_ids": {"viaf": "34722696", "wikidata": "Q1029423", "isni": "0000000120370509"}}
{"name": "Nikola\u012d I\ufe20A\ufe21kovlevich Kuznet\ufe20s\ufe21ov", "remote_ids": {"viaf": "78344279", "wikidata": "Q4245038", "isni": "0000000042317939"}}
{"name": "Fritz Scholder", "remote_ids": {"viaf": "61655601", "wikidata": "Q5505013", "isni": "0000000081409211"}}
{"name": "Friedrich von Thiersch", "remote_ids": {"viaf": "47555047", "wikidata": "Q75204", "isni": "0000000066772573"}}
{"name": "Amin Maalouf", "remote_ids": {"viaf": "108192345", "wikidata": "Q115243", "isni": "0000000121468487"}}
{"name": "Timofe\u012d Vasil\u02b9evich Barsov", "remote_ids": {"viaf": "71139182", "wikidata": "Q20725570", "isni": "0000000061337150"}}
{"name": "Fernando Agnoletti", "remote_ids": {"viaf": "54215478", "wikidata": "Q3742877", "isni": "0000000081327419"}}
{"name": "Ernest Finger", "remote_ids": {"viaf": "53798296", "wikidata": "Q90040", "isni": "0000000055582117"}}
{"name": "Einar Erici", "remote_ids": {"viaf": "6588115", "wikidata": "Q5714463", "isni": "0000000107177587"}}
{"name": "Joseph Czapek", "remote_ids": {"viaf": "71168469", "wikidata": "Q1706180", "isni": "0000000053392061"}}
{"name": "Jacob Adam Kappey", "remote_ids": {"viaf": "24163932", "wikidata": "Q19405883", "isni": "0000000063176725"}}
{"name": "Pierre Brumoy", "remote_ids": {"viaf": "24624020", "wikidata": "Q2093251", "isni": "0000000081029550"}}
{"name": "Moriz Carri\u00e8re", "remote_ids": {"viaf": "72202163", "wikidata": "Q97077", "isni": "0000000109147752"}}
{"name": "Giovanni Gerolamo Albani", "remote_ids": {"viaf": "49216401", "wikidata": "Q1362839", "isni": "0000000080743883"}}
{"name": "Taijir\u014d Tamura", "remote_ids": {"viaf": "29769654", "wikidata": "Q7681894", "isni": "0000000082142256"}}
{"name": "Giovanni Adamo", "remote_ids": {"viaf": "19773218", "wikidata": "Q77227732", "isni": "0000000116040179"}}
{"name": "Maynard Mayo Metcalf", "remote_ids": {"viaf": "52071330", "wikidata": "Q3302988", "isni": "0000000083824857"}}
{"name": "Hugh Lloyd", "remote_ids": {"viaf": "55675437", "wikidata": "Q16859746"}}
{"name": "Walther Ritz", "remote_ids": {"viaf": "24719767", "wikidata": "Q124079", "isni": "0000000108799695"}}
{"name": "Joseph Healy", "remote_ids": {"viaf": "259230061", "wikidata": "Q1707195"}}
{"name": "Helen B. Andelin", "remote_ids": {"viaf": "25930528", "wikidata": "Q5701816", "isni": "000000002647933X"}}
{"name": "No\u00ebl Audet", "remote_ids": {"wikidata": "Q3345762", "isni": "0000000114555558", "viaf": "115680243"}}
{"name": "K. E. O. Fritsch", "remote_ids": {"viaf": "32807665", "wikidata": "Q1296294", "isni": "0000000066763909"}}
{"name": "Voisenon abb\u00e9 de", "remote_ids": {"viaf": "21146", "wikidata": "Q2976734", "isni": "000000011019680X"}}
{"name": "John Hodgkin", "remote_ids": {"viaf": "22007661", "wikidata": "Q6239488", "isni": "0000000064111237"}}
{"name": "Steingr\u00edmur Arason", "remote_ids": {"viaf": "56523168", "wikidata": "Q16427356", "isni": "0000000049544309"}}
