{"name": "Oleksii\u0306 Oleksii\u0306ovych Shovkunenko", "remote_ids": {"viaf": "48087072", "wikidata": "Q3350322", "isni": "0000000067066697"}}
{"name": "Latham, John", "remote_ids": {"viaf": "89853003", "wikidata": "Q18671961", "isni": "0000000076930467"}}
{"name": "Gardiner, Asa Bird", "remote_ids": {"viaf": "48110944", "wikidata": "Q4803105", "isni": "0000000033639821"}}
{"name": "Francis Wayland", "remote_ids": {"viaf": "47811786", "wikidata": "Q5482721", "isni": "000000008224886X"}}
{"name": "Johann Woldemar Streubel", "remote_ids": {"viaf": "57389016", "wikidata": "Q23063220", "isni": "0000000010315402"}}
{"name": "Beltramelli, Antonio", "remote_ids": {"viaf": "10228344", "wikidata": "Q3619249", "isni": "0000000116753697"}}
{"name": "Hermann Eduard von Holst", "remote_ids": {"viaf": "49990777", "wikidata": "Q91338", "isni": "0000000083814480"}}
{"name": "Joseph Defrecheux", "remote_ids": {"viaf": "290720727", "wikidata": "Q934176", "isni": "000000039591398X"}}
{"name": "G. M. Fikhtengol\u02b9t\ufe20s\ufe21", "remote_ids": {"viaf": "13030471", "wikidata": "Q1235148", "isni": "0000000081998423"}}
{"name": "Alessandro Rolla", "remote_ids": {"viaf": "17408774", "wikidata": "Q2143613", "isni": "000000008096933X"}}
{"name": "Jo\u0308rn Barfod", "remote_ids": {"viaf": "55089454", "wikidata": "Q26420671", "isni": "0000000029278883"}}
{"name": "Vittoria Ronchey", "remote_ids": {"viaf": "76445623", "wikidata": "Q4015197", "isni": "0000000063081953"}}
{"name": "Karl Vorl\u00e4nder", "remote_ids": {"viaf": "7481655", "wikidata": "Q90180", "isni": "0000000108671309"}}
{"name": "Raymond Postgate", "remote_ids": {"isni": "0000000120986346", "wikidata": "Q7299082", "viaf": "3282530"}}
{"name": "Ludwig von Mises", "remote_ids": {"viaf": "24609186", "wikidata": "Q84233", "isni": "0000000121244547"}}
{"name": "Madeleine Pelletier", "remote_ids": {"viaf": "22146823", "wikidata": "Q528793", "isni": "000000008100584X"}}
{"name": "Juhan Luiga", "remote_ids": {"viaf": "20548116", "wikidata": "Q16407652", "isni": "0000000073591164"}}
{"name": "Stuart J. Russell", "remote_ids": {"viaf": "81856176", "wikidata": "Q3656334", "isni": "0000000083978047"}}
{"name": "Federigo Tozzi", "remote_ids": {"viaf": "68940126", "wikidata": "Q1245508", "isni": "0000000121380178"}}
{"name": "Igino Benvenuto Supino", "remote_ids": {"viaf": "57542515", "wikidata": "Q15997104", "isni": "0000000110274847"}}
{"name": "Johann Melchior Krafft", "remote_ids": {"viaf": "37664894", "wikidata": "Q1695501", "isni": "0000000116226539"}}
{"name": "Andrea Angiolino", "remote_ids": {"viaf": "85339588", "wikidata": "Q2846292", "isni": "0000000063029231"}}
{"name": "Abner Lacock", "remote_ids": {"viaf": "28565181", "wikidata": "Q322539", "isni": "0000000030758921"}}
{"name": "Ammianus Marcellinus", "remote_ids": {"viaf": "89594750", "wikidata": "Q172198", "isni": "0000000121287256"}}
{"name": "Aim\u00e9 Bonpland", "remote_ids": {"viaf": "51750221", "wikidata": "Q405702", "isni": "0000000121013124"}}
{"name": "William Yates Gholson", "remote_ids": {"viaf": "73433825", "wikidata": "Q8020639", "isni": "0000000039490378"}}
{"name": "Ljubomir Nedi\u0107", "remote_ids": {"viaf": "17333448", "wikidata": "Q6660968", "isni": "0000000114601665"}}
{"name": "Augustine Joseph Hickey Duganne", "remote_ids": {"viaf": "65458085", "wikidata": "Q4821188", "isni": "0000000063673334"}}
{"name": "Georgi\u012d Aleksandrovich Khaburgaev", "remote_ids": {"viaf": "17635568", "wikidata": "Q4494431", "isni": "0000000116014253"}}
{"name": "Josh Mal\u012b\u1e25\u0101b\u0101d\u012b", "remote_ids": {"viaf": "74135563", "wikidata": "Q3631671", "isni": "0000000116727552"}}
{"name": "Wilhelm Rein", "remote_ids": {"viaf": "35207894", "wikidata": "Q19238799", "isni": "0000000108873461"}}
{"name": "Carlo Tessarini", "remote_ids": {"viaf": "44491576", "wikidata": "Q939898", "isni": "0000000083780022"}}
{"name": "Takeo Kat\u014d", "remote_ids": {"viaf": "262551723", "wikidata": "Q11399333", "isni": "0000000082336907"}}
{"name": "Pirro Ligorio", "remote_ids": {"viaf": "314494", "wikidata": "Q736090", "isni": "0000000118385728"}}
{"name": "Torquato da Luz", "remote_ids": {"viaf": "29451324", "wikidata": "Q10383686", "isni": "0000000067879006"}}
{"name": "Hermann D\u00f6rries", "remote_ids": {"viaf": "34583924", "wikidata": "Q1610949", "isni": "0000000121274746"}}
{"name": "Sylvain L\u00e9vi", "remote_ids": {"viaf": "2473506", "wikidata": "Q725444", "isni": "0000000108624422"}}
